1 -1 2 0
1 1 -3 0
1 -4 -5 0
1 4 6 0
1 -4 7 0
1 4 8 0
1 9 -6 0
1 -9 -8 0
1 10 -11 0
1 10 12 0
1 10 -13 0
1 -13 -12 0
1 -13 -14 0
1 -6 -15 0
1 -6 16 0
1 -8 -17 0
1 -8 -18 0
1 8 1 0
1 -8 -19 0
1 -12 -20 0
1 -14 5 0
1 -14 21 0
1 11 22 0
1 -11 23 0
1 -11 20 0
1 -11 -13 0
1 24 25 0
1 -24 -21 0
1 -24 -11 0
1 24 26 0
1 24 -4 0
1 21 -12 0
1 -21 9 0
1 21 -27 0
1 20 -5 0
1 -20 -9 0
1 -20 -28 0
1 20 -18 0
1 5 -14 0
1 -29 -30 0
1 29 -23 0
1 30 -31 0
1 30 -24 0
1 -32 -25 0
1 -32 -21 0
1 32 31 0
1 -25 -23 0
1 25 -33 0
1 -33 -30 0
1 -33 11 0
1 -33 -29 0
1 -23 -32 0
1 34 26 0
1 -34 14 0
1 -34 -35 0
1 31 30 0
1 -31 36 0
1 -31 -34 0
1 -37 38 0
1 -37 39 0
1 -7 -40 0
1 -7 -41 0
1 7 -42 0
1 43 -39 0
1 40 -44 0
1 40 -3 0
1 45 -46 0
1 -45 47 0
1 45 -3 0
1 -48 49 0
1 48 -50 0
1 39 37 0
1 39 50 0
1 -47 6 0
1 47 51 0
1 47 -50 0
1 -15 52 0
1 44 6 0
1 44 53 0
1 44 -54 0
1 22 -55 0
1 -41 51 0
1 -41 15 0
1 51 56 0
1 51 -15 0
1 -52 -57 0
1 -52 22 0
1 52 -58 0
1 -52 59 0
1 -52 -47 0
1 60 61 0
1 -60 44 0
1 -60 62 0
1 -18 -17 0
1 18 63 0
1 18 29 0
1 18 -64 0
1 18 54 0
1 17 5 0
1 17 -30 0
1 17 6 0
1 17 18 0
1 65 32 0
1 65 -54 0
1 -65 19 0
1 66 25 0
1 -66 41 0
1 -66 67 0
1 66 -51 0
1 -66 -19 0
1 -63 -17 0
1 -54 26 0
1 -54 68 0
1 54 -18 0
1 -54 69 0
1 54 27 0
1 55 -56 0
1 55 65 0
1 -55 18 0
1 55 -53 0
1 55 69 0
1 53 66 0
1 -53 -70 0
1 53 -65 0
1 53 -18 0
1 -53 -44 0
1 26 63 0
1 -26 16 0
1 -26 54 0
1 -27 56 0
1 27 -71 0
1 27 -20 0
1 36 -71 0
1 36 72 0
1 36 28 0
1 -36 73 0
1 74 72 0
1 -74 63 0
1 -74 36 0
1 74 -28 0
1 -74 34 0
1 74 19 0
1 -74 -54 0
1 67 -75 0
1 67 10 0
1 -67 -76 0
1 67 -27 0
1 -71 26 0
1 -16 -77 0
1 16 -36 0
1 16 26 0
1 -16 78 0
1 19 -16 0
1 19 -69 0
1 -19 -79 0
1 80 71 0
1 80 -70 0
1 -80 -73 0
1 80 -33 0
1 81 -31 0
1 -81 -23 0
1 81 -67 0
1 75 28 0
1 -73 -82 0
1 73 83 0
1 73 76 0
1 84 21 0
1 -28 -85 0
1 28 -86 0
1 -28 -87 0
1 28 -81 0
1 28 74 0
1 72 -85 0
1 -72 -86 0
1 72 76 0
1 -72 -81 0
1 -88 73 0
1 88 -89 0
1 -90 -84 0
1 90 -91 0
1 90 73 0
1 90 -87 0
1 -92 -84 0
1 92 -89 0
1 93 -84 0
1 -93 -92 0
1 -93 94 0
1 89 -92 0
1 89 -88 0
1 89 90 0
1 -35 -95 0
1 35 92 0
1 35 94 0
1 35 93 0
1 -35 34 0
1 94 96 0
1 -94 97 0
1 94 -98 0
1 -94 -35 0
1 99 -100 0
1 -99 3 0
1 -38 -101 0
1 -42 102 0
1 -103 104 0
1 -103 105 0
1 -100 -106 0
1 -100 -107 0
1 -100 -38 0
1 -100 108 0
1 109 -106 0
1 109 104 0
1 -109 -108 0
1 50 -103 0
1 50 -110 0
1 -50 101 0
1 50 108 0
1 110 48 0
1 110 15 0
1 110 -101 0
1 -49 -111 0
1 -49 -102 0
1 -112 113 0
1 112 114 0
1 -112 115 0
1 102 110 0
1 -116 49 0
1 -115 117 0
1 -115 112 0
1 115 -113 0
1 115 -118 0
1 -115 105 0
1 -115 49 0
1 -113 119 0
1 113 -105 0
1 64 52 0
1 -64 -114 0
1 -64 -111 0
1 -64 102 0
1 57 52 0
1 61 60 0
1 120 121 0
1 -120 -122 0
1 -120 -123 0
1 -121 124 0
1 111 125 0
1 111 126 0
1 -111 -59 0
1 -111 -61 0
1 111 -64 0
1 -127 -57 0
1 -127 61 0
1 114 112 0
1 -114 -128 0
1 -114 64 0
1 114 -49 0
1 -114 -127 0
1 -59 -122 0
1 -59 -111 0
1 59 26 0
1 -59 -129 0
1 59 -46 0
1 56 -122 0
1 56 -123 0
1 56 -46 0
1 -130 -55 0
1 130 -131 0
1 130 -46 0
1 130 -53 0
1 -132 -55 0
1 132 130 0
1 -123 -120 0
1 123 40 0
1 -123 133 0
1 123 -70 0
1 -123 -130 0
1 123 69 0
1 -123 132 0
1 -46 134 0
1 -46 -59 0
1 -46 78 0
1 -46 69 0
1 -122 -125 0
1 -122 61 0
1 -122 -135 0
1 136 -120 0
1 -136 -122 0
1 136 137 0
1 136 138 0
1 -70 80 0
1 70 63 0
1 70 139 0
1 69 54 0
1 -69 -16 0
1 69 -124 0
1 -140 141 0
1 140 -46 0
1 -140 68 0
1 78 -123 0
1 78 -58 0
1 78 -62 0
1 -141 -142 0
1 -141 77 0
1 141 -143 0
1 -141 -78 0
1 -139 70 0
1 139 86 0
1 58 -62 0
1 -58 144 0
1 -58 -135 0
1 -58 -69 0
1 62 -134 0
1 -62 70 0
1 -77 141 0
1 -77 -145 0
1 -77 146 0
1 77 -147 0
1 -85 -148 0
1 -85 -149 0
1 -85 139 0
1 -86 85 0
1 -86 146 0
1 86 139 0
1 -146 150 0
1 -146 -77 0
1 -146 63 0
1 68 -146 0
1 68 98 0
1 -68 82 0
1 -68 -86 0
1 -145 151 0
1 147 -140 0
1 147 152 0
1 147 -153 0
1 95 -142 0
1 82 154 0
1 82 -146 0
1 82 -35 0
1 -150 -94 0
1 150 146 0
1 -150 83 0
1 -98 150 0
1 98 -155 0
1 98 -149 0
1 -98 156 0
1 98 -35 0
1 98 68 0
1 -98 -79 0
1 157 98 0
1 157 158 0
1 157 -159 0
1 154 96 0
1 154 160 0
1 -154 -161 0
1 154 -98 0
1 154 158 0
1 -149 -85 0
1 149 98 0
1 149 -162 0
1 79 95 0
1 79 163 0
1 96 -164 0
1 96 -154 0
1 -96 165 0
1 -96 161 0
1 161 -152 0
1 159 -166 0
1 -159 167 0
1 -167 -155 0
1 167 157 0
1 167 -156 0
1 167 -168 0
1 83 -96 0
1 -83 155 0
1 83 169 0
1 83 161 0
1 83 -170 0
1 155 -83 0
1 165 171 0
1 165 -98 0
1 172 97 0
1 -172 166 0
1 -172 -173 0
1 174 160 0
1 -175 168 0
1 -169 -97 0
1 -169 -173 0
1 168 166 0
1 166 91 0
1 166 -169 0
1 -173 176 0
1 173 -97 0
1 -173 159 0
1 97 -171 0
1 97 169 0
1 97 170 0
1 177 178 0
1 -177 -179 0
1 177 180 0
1 -177 -42 0
1 -177 -181 0
1 177 -182 0
1 -183 104 0
1 183 -184 0
1 183 177 0
1 -179 -107 0
1 180 -106 0
1 -180 183 0
1 180 179 0
1 178 -185 0
1 -186 178 0
1 -186 -185 0
1 108 -179 0
1 107 -109 0
1 107 -187 0
1 107 100 0
1 -107 108 0
1 -188 189 0
1 188 109 0
1 106 187 0
1 -106 -184 0
1 106 -188 0
1 -184 -190 0
1 182 191 0
1 182 -192 0
1 182 -107 0
1 -182 -118 0
1 -187 -107 0
1 187 -183 0
1 -187 -188 0
1 -181 -187 0
1 -193 -105 0
1 193 -101 0
1 118 -113 0
1 118 194 0
1 -192 -195 0
1 192 118 0
1 195 106 0
1 -195 -196 0
1 195 129 0
1 195 197 0
1 -195 -105 0
1 195 -188 0
1 189 -198 0
1 189 -196 0
1 189 199 0
1 -200 -191 0
1 200 196 0
1 200 -201 0
1 -202 -106 0
1 202 203 0
1 -129 117 0
1 -129 204 0
1 -129 -195 0
1 -129 -127 0
1 117 191 0
1 131 204 0
1 131 -114 0
1 -131 194 0
1 131 -199 0
1 -199 131 0
1 -199 132 0
1 194 117 0
1 194 -205 0
1 -194 138 0
1 194 -199 0
1 205 -137 0
1 205 -131 0
1 205 -129 0
1 -206 -100 0
1 206 207 0
1 206 203 0
1 204 208 0
1 -204 209 0
1 204 -206 0
1 -204 -207 0
1 -204 199 0
1 124 127 0
1 -124 -194 0
1 124 -203 0
1 137 -205 0
1 137 -119 0
1 -137 -140 0
1 137 210 0
1 137 194 0
1 137 211 0
1 138 128 0
1 138 136 0
1 -138 -212 0
1 -211 -135 0
1 -211 124 0
1 211 199 0
1 -210 137 0
1 213 -131 0
1 -213 214 0
1 134 -215 0
1 -134 122 0
1 -134 123 0
1 -134 -136 0
1 -134 -62 0
1 -135 -215 0
1 -135 -122 0
1 -135 -58 0
1 148 58 0
1 -148 -128 0
1 148 -126 0
1 -148 211 0
1 144 215 0
1 144 -133 0
1 -144 128 0
1 144 216 0
1 -144 62 0
1 144 -86 0
1 144 217 0
1 215 138 0
1 -126 215 0
1 -126 218 0
1 126 142 0
1 -126 -137 0
1 126 153 0
1 -126 -219 0
1 -217 220 0
1 217 221 0
1 -217 134 0
1 -217 -222 0
1 -217 -144 0
1 -217 -127 0
1 -128 -134 0
1 -128 223 0
1 128 217 0
1 142 -224 0
1 225 -215 0
1 218 126 0
1 -218 -226 0
1 218 147 0
1 133 -142 0
1 -133 225 0
1 -216 -218 0
1 -216 -142 0
1 216 153 0
1 227 -228 0
1 227 142 0
1 227 -148 0
1 224 142 0
1 224 -229 0
1 -224 222 0
1 224 225 0
1 224 -230 0
1 164 -231 0
1 164 146 0
1 152 -149 0
1 152 147 0
1 -232 -143 0
1 -232 -163 0
1 -232 -226 0
1 -163 -233 0
1 143 218 0
1 143 -160 0
1 143 232 0
1 226 234 0
1 -226 235 0
1 -231 -229 0
1 231 163 0
1 231 153 0
1 231 -236 0
1 -237 164 0
1 -237 -238 0
1 -237 239 0
1 -158 226 0
1 158 -172 0
1 160 -149 0
1 160 156 0
1 160 79 0
1 -235 143 0
1 -240 -165 0
1 240 169 0
1 240 143 0
1 240 241 0
1 -240 162 0
1 240 235 0
1 242 -243 0
1 242 235 0
1 -233 -68 0
1 -233 -244 0
1 -151 163 0
1 151 -245 0
1 -151 239 0
1 -151 -158 0
1 -151 -232 0
1 241 160 0
1 241 163 0
1 170 246 0
1 171 -155 0
1 -171 -247 0
1 -171 -162 0
1 -171 170 0
1 -248 -249 0
1 -248 97 0
1 176 -162 0
1 176 250 0
1 -176 -173 0
1 -176 233 0
1 251 252 0
1 251 -249 0
1 -251 240 0
1 251 253 0
1 251 -157 0
1 251 170 0
1 -249 -254 0
1 -249 -251 0
1 -249 248 0
1 162 -149 0
1 -246 254 0
1 -246 255 0
1 246 170 0
1 -246 235 0
1 256 255 0
1 257 97 0
1 257 251 0
1 -257 258 0
1 252 -258 0
1 -252 259 0
1 260 -176 0
1 260 261 0
1 258 254 0
1 258 -252 0
1 -258 262 0
1 -258 156 0
1 -258 263 0
1 -262 253 0
1 -264 260 0
1 -261 265 0
1 -261 259 0
1 265 -264 0
1 -266 -261 0
1 -266 -173 0
1 267 -261 0
1 267 -266 0
1 268 -269 0
1 191 -202 0
1 191 270 0
1 -201 -269 0
1 -201 131 0
1 -201 270 0
1 -271 -190 0
1 -272 -191 0
1 -272 212 0
1 -269 271 0
1 -269 -270 0
1 196 204 0
1 -196 200 0
1 196 195 0
1 -196 272 0
1 196 -203 0
1 203 189 0
1 -203 -273 0
1 203 195 0
1 274 275 0
1 274 198 0
1 274 -206 0
1 -212 -275 0
1 212 -276 0
1 -212 198 0
1 190 -277 0
1 190 -207 0
1 -275 278 0
1 275 -274 0
1 -275 201 0
1 -275 277 0
1 275 -207 0
1 279 -280 0
1 279 201 0
1 -279 -277 0
1 209 204 0
1 209 -205 0
1 -207 -275 0
1 207 -205 0
1 207 -194 0
1 -207 213 0
1 207 -206 0
1 278 148 0
1 278 281 0
1 278 197 0
1 282 -278 0
1 282 119 0
1 -282 144 0
1 282 283 0
1 -197 -274 0
1 197 284 0
1 -197 -285 0
1 197 207 0
1 -198 -286 0
1 198 214 0
1 -198 207 0
1 281 -284 0
1 -281 -207 0
1 276 202 0
1 276 -280 0
1 221 -142 0
1 -221 280 0
1 -221 208 0
1 221 119 0
1 214 221 0
1 214 -208 0
1 214 119 0
1 -214 210 0
1 214 -211 0
1 -285 283 0
1 287 -228 0
1 -287 220 0
1 287 221 0
1 -287 -194 0
1 288 -286 0
1 -288 -278 0
1 288 -289 0
1 -288 214 0
1 -283 290 0
1 283 221 0
1 -283 -206 0
1 -208 -204 0
1 -220 126 0
1 222 -227 0
1 -222 -288 0
1 222 287 0
1 -228 -291 0
1 228 -223 0
1 292 -223 0
1 -292 -224 0
1 -292 287 0
1 -293 286 0
1 -293 294 0
1 -293 -229 0
1 -295 293 0
1 -296 228 0
1 296 -220 0
1 296 -285 0
1 -296 297 0
1 291 220 0
1 -291 -298 0
1 -291 119 0
1 291 -299 0
1 229 289 0
1 229 219 0
1 -236 -300 0
1 -236 -231 0
1 -294 -301 0
1 294 -302 0
1 294 -295 0
1 294 -303 0
1 294 -293 0
1 -301 -304 0
1 219 -305 0
1 -219 304 0
1 -306 298 0
1 306 294 0
1 -306 292 0
1 -306 -223 0
1 306 -304 0
1 -306 -217 0
1 -223 -307 0
1 223 -308 0
1 239 -301 0
1 -239 300 0
1 239 -302 0
1 -239 143 0
1 239 303 0
1 239 170 0
1 239 -226 0
1 247 -226 0
1 -247 300 0
1 -247 171 0
1 247 -143 0
1 247 302 0
1 245 -305 0
1 -245 248 0
1 -245 -303 0
1 -245 -238 0
1 305 -301 0
1 -305 -309 0
1 305 230 0
1 -305 241 0
1 302 305 0
1 303 310 0
1 303 -311 0
1 -303 -239 0
1 -300 -227 0
1 300 312 0
1 -300 -230 0
1 -230 307 0
1 -230 305 0
1 230 -300 0
1 230 313 0
1 230 245 0
1 -255 -314 0
1 -255 -162 0
1 -255 -304 0
1 255 303 0
1 -243 -314 0
1 243 151 0
1 -243 303 0
1 315 234 0
1 -315 -244 0
1 -311 246 0
1 311 315 0
1 311 234 0
1 -311 -316 0
1 -311 244 0
1 314 311 0
1 314 -243 0
1 314 143 0
1 -314 245 0
1 -234 314 0
1 -309 -310 0
1 309 -311 0
1 309 317 0
1 238 317 0
1 -238 -313 0
1 253 -262 0
1 253 162 0
1 -253 -313 0
1 253 244 0
1 254 -310 0
1 -254 -318 0
1 -254 -234 0
1 -254 -316 0
1 -319 -234 0
1 263 -320 0
1 318 315 0
1 -244 253 0
1 -244 263 0
1 -316 -254 0
1 -316 319 0
1 277 -279 0
1 -321 286 0
1 321 -322 0
1 321 323 0
1 324 325 0
1 -324 281 0
1 -325 -290 0
1 -325 -280 0
1 325 326 0
1 -325 -284 0
1 -325 324 0
1 325 -327 0
1 327 272 0
1 323 277 0
1 -328 -220 0
1 -328 325 0
1 -328 329 0
1 328 281 0
1 284 -325 0
1 290 -330 0
1 -290 -326 0
1 290 331 0
1 290 332 0
1 -290 -283 0
1 326 -333 0
1 326 -208 0
1 -326 327 0
1 -326 334 0
1 331 335 0
1 -331 -336 0
1 331 -190 0
1 337 -328 0
1 337 -335 0
1 337 -297 0
1 329 -326 0
1 -329 -334 0
1 -334 -326 0
1 299 -208 0
1 -299 -289 0
1 299 -283 0
1 299 287 0
1 -289 330 0
1 289 333 0
1 -289 -338 0
1 -289 -332 0
1 -297 -332 0
1 -336 339 0
1 -332 290 0
1 332 333 0
1 332 -308 0
1 -332 336 0
1 -332 -326 0
1 -332 299 0
1 -333 326 0
1 333 340 0
1 -338 341 0
1 -338 335 0
1 -338 -342 0
1 -330 343 0
1 -330 -341 0
1 330 326 0
1 -330 342 0
1 330 299 0
1 -340 -306 0
1 -340 344 0
1 -298 -333 0
1 298 -247 0
1 298 345 0
1 -298 340 0
1 298 -293 0
1 346 344 0
1 346 223 0
1 346 245 0
1 -308 -347 0
1 308 346 0
1 -308 -345 0
1 -339 -348 0
1 339 307 0
1 -339 308 0
1 -339 287 0
1 339 297 0
1 -347 349 0
1 -347 -304 0
1 345 298 0
1 -344 -350 0
1 344 -298 0
1 344 -349 0
1 -344 342 0
1 304 -342 0
1 304 339 0
1 307 -301 0
1 307 -343 0
1 -307 -347 0
1 312 -351 0
1 -312 315 0
1 312 -352 0
1 312 353 0
1 348 350 0
1 348 -351 0
1 348 -353 0
1 -348 -354 0
1 -354 -313 0
1 351 310 0
1 351 308 0
1 351 -312 0
1 -351 304 0
1 353 -307 0
1 353 308 0
1 -353 -346 0
1 355 -356 0
1 313 -351 0
1 313 -238 0
1 313 354 0
1 310 -300 0
1 -310 357 0
1 -317 356 0
1 -317 -358 0
1 -358 -359 0
1 -358 -309 0
1 358 -238 0
1 360 310 0
1 360 -358 0
1 361 348 0
1 -357 -358 0
1 -362 363 0
1 -362 334 0
1 335 337 0
1 -335 -298 0
1 335 334 0
1 -364 365 0
1 364 -346 0
1 -341 366 0
1 -341 308 0
1 -341 367 0
1 -368 341 0
1 -369 343 0
1 369 -362 0
1 370 -362 0
1 -370 -363 0
1 342 343 0
1 342 365 0
1 342 304 0
1 -343 -344 0
1 -343 -345 0
1 350 348 0
1 350 371 0
1 350 365 0
1 -350 372 0
1 365 -359 0
1 365 342 0
1 -366 341 0
1 -366 -342 0
1 367 -364 0
1 -373 367 0
1 -349 366 0
1 349 -374 0
1 349 -355 0
1 349 372 0
1 -375 -355 0
1 -375 372 0
1 359 -355 0
1 359 356 0
1 -376 359 0
1 -376 -350 0
1 -376 -332 0
1 371 359 0
1 371 375 0
1 371 333 0
1 -372 350 0
1 -374 -356 0
